MAX
B&B&Lisbete&Grafos+B&K&Lisbete&Grafos+B&H&Lisbete&Grafos+B&G&Lisbete&Grafos+B&D&Lisbete&Grafos+B&J&Lisbete&Grafos+B&A&Lisbete&Grafos+B&M&Lisbete&Grafos+B&N&Lisbete&Grafos+B&E&Lisbete&Grafos+B&H&Wladmir&SistemasDistribuidos+B&G&Wladmir&SistemasDistribuidos+B&D&Wladmir&SistemasDistribuidos+B&A&Wladmir&SistemasDistribuidos+B&N&Wladmir&SistemasDistribuidos+B&C&Wladmir&SistemasDistribuidos+B&O&Wladmir&SistemasDistribuidos+B&G&Carlos&LPI+B&I&Carlos&LPI+B&F&Carlos&LPI+B&D&Carlos&LPI+B&J&Carlos&LPI+B&A&Carlos&LPI+B&M&Carlos&LPI+B&L&Carlos&LPI+B&C&Carlos&LPI+B&O&Carlos&LPI+B&K&Milton&RedesII+B&I&Milton&RedesII+B&F&Milton&RedesII+B&D&Milton&RedesII+B&J&Milton&RedesII+B&L&Milton&RedesII+B&E&Milton&RedesII+B&C&Milton&RedesII+B&O&Milton&RedesII+B&K&Milton&LabRedesII+B&I&Milton&LabRedesII+B&F&Milton&LabRedesII+B&D&Milton&LabRedesII+B&J&Milton&LabRedesII+B&L&Milton&LabRedesII+B&E&Milton&LabRedesII+B&C&Milton&LabRedesII+B&O&Milton&LabRedesII+B&H&Satoshi&LabBancoDeDadosII+B&G&Satoshi&LabBancoDeDadosII+B&I&Satoshi&LabBancoDeDadosII+B&M&Satoshi&LabBancoDeDadosII+B&N&Satoshi&LabBancoDeDadosII+B&O&Satoshi&LabBancoDeDadosII+B&H&Satoshi&BancoDeDadosII+B&G&Satoshi&BancoDeDadosII+B&I&Satoshi&BancoDeDadosII+B&M&Satoshi&BancoDeDadosII+B&N&Satoshi&BancoDeDadosII+B&O&Satoshi&BancoDeDadosII+B&B&Italo&LPII+B&K&Italo&LPII+B&F&Italo&LPII+B&L&Italo&LPII+B&N&Italo&LPII+B&E&Italo&LPII+B&C&Italo&LPII+B&O&Italo&LPII+A&B&Lisbete&EstruturaDeDados+A&K&Lisbete&EstruturaDeDados+A&H&Lisbete&EstruturaDeDados+A&G&Lisbete&EstruturaDeDados+A&D&Lisbete&EstruturaDeDados+A&J&Lisbete&EstruturaDeDados+A&A&Lisbete&EstruturaDeDados+A&M&Lisbete&EstruturaDeDados+A&N&Lisbete&EstruturaDeDados+A&E&Lisbete&EstruturaDeDados+A&B&Lisbete&Algoritmos+A&K&Lisbete&Algoritmos+A&H&Lisbete&Algoritmos+A&G&Lisbete&Algoritmos+A&D&Lisbete&Algoritmos+A&J&Lisbete&Algoritmos+A&A&Lisbete&Algoritmos+A&M&Lisbete&Algoritmos+A&N&Lisbete&Algoritmos+A&E&Lisbete&Algoritmos+A&H&Wladmir&EST+A&G&Wladmir&EST+A&D&Wladmir&EST+A&A&Wladmir&EST+A&N&Wladmir&EST+A&C&Wladmir&EST+A&O&Wladmir&EST+A&G&Carlos&ESP+A&I&Carlos&ESP+A&F&Carlos&ESP+A&D&Carlos&ESP+A&J&Carlos&ESP+A&A&Carlos&ESP+A&M&Carlos&ESP+A&L&Carlos&ESP+A&C&Carlos&ESP+A&O&Carlos&ESP+A&K&Milton&Redes+A&I&Milton&Redes+A&F&Milton&Redes+A&D&Milton&Redes+A&J&Milton&Redes+A&L&Milton&Redes+A&E&Milton&Redes+A&C&Milton&Redes+A&O&Milton&Redes+A&K&Milton&LabRedes+A&I&Milton&LabRedes+A&F&Milton&LabRedes+A&D&Milton&LabRedes+A&J&Milton&LabRedes+A&L&Milton&LabRedes+A&E&Milton&LabRedes+A&C&Milton&LabRedes+A&O&Milton&LabRedes+A&H&Satoshi&BancoDeDados+A&G&Satoshi&BancoDeDados+A&I&Satoshi&BancoDeDados+A&M&Satoshi&BancoDeDados+A&N&Satoshi&BancoDeDados+A&O&Satoshi&BancoDeDados+A&B&Italo&EngenhariaDeSoftware+A&K&Italo&EngenhariaDeSoftware+A&F&Italo&EngenhariaDeSoftware+A&L&Italo&EngenhariaDeSoftware+A&N&Italo&EngenhariaDeSoftware+A&E&Italo&EngenhariaDeSoftware+A&C&Italo&EngenhariaDeSoftware+A&O&Italo&EngenhariaDeSoftware+A&B&Italo&OrientacaoObjetos+A&K&Italo&OrientacaoObjetos+A&F&Italo&OrientacaoObjetos+A&L&Italo&OrientacaoObjetos+A&N&Italo&OrientacaoObjetos+A&E&Italo&OrientacaoObjetos+A&C&Italo&OrientacaoObjetos+A&O&Italo&OrientacaoObjetos
ST
B&B&Lisbete&Grafos+B&B&Italo&LPII<1
B&K&Lisbete&Grafos+B&K&Milton&RedesII+B&K&Milton&LabRedesII+B&K&Italo&LPII<1
B&F&Carlos&LPI+B&F&Milton&RedesII+B&F&Milton&LabRedesII+B&F&Italo&LPII<1
B&D&Lisbete&Grafos+B&D&Wladmir&SistemasDistribuidos+B&D&Carlos&LPI+B&D&Milton&RedesII+B&D&Milton&LabRedesII<1
B&A&Lisbete&Grafos+B&A&Wladmir&SistemasDistribuidos+B&A&Carlos&LPI<1
B&C&Wladmir&SistemasDistribuidos+B&C&Carlos&LPI+B&C&Milton&RedesII+B&C&Milton&LabRedesII+B&C&Italo&LPII<1
B&O&Wladmir&SistemasDistribuidos+B&O&Carlos&LPI+B&O&Milton&RedesII+B&O&Milton&LabRedesII+B&O&Satoshi&LabBancoDeDadosII+B&O&Satoshi&BancoDeDadosII+B&O&Italo&LPII<1
B&H&Lisbete&Grafos+B&H&Wladmir&SistemasDistribuidos+B&H&Satoshi&LabBancoDeDadosII+B&H&Satoshi&BancoDeDadosII<1
B&G&Lisbete&Grafos+B&G&Wladmir&SistemasDistribuidos+B&G&Carlos&LPI+B&G&Satoshi&LabBancoDeDadosII+B&G&Satoshi&BancoDeDadosII<1
B&I&Carlos&LPI+B&I&Milton&RedesII+B&I&Milton&LabRedesII+B&I&Satoshi&LabBancoDeDadosII+B&I&Satoshi&BancoDeDadosII<1
B&J&Lisbete&Grafos+B&J&Carlos&LPI+B&J&Milton&RedesII+B&J&Milton&LabRedesII<1
B&M&Lisbete&Grafos+B&M&Carlos&LPI+B&M&Satoshi&LabBancoDeDadosII+B&M&Satoshi&BancoDeDadosII<1
B&L&Carlos&LPI+B&L&Milton&RedesII+B&L&Milton&LabRedesII+B&L&Italo&LPII<1
B&N&Lisbete&Grafos+B&N&Wladmir&SistemasDistribuidos+B&N&Satoshi&LabBancoDeDadosII+B&N&Satoshi&BancoDeDadosII+B&N&Italo&LPII<1
B&E&Lisbete&Grafos+B&E&Milton&RedesII+B&E&Milton&LabRedesII+B&E&Italo&LPII<1
A&B&Lisbete&EstruturaDeDados+A&B&Lisbete&Algoritmos+A&B&Italo&EngenhariaDeSoftware+A&B&Italo&OrientacaoObjetos<1
A&K&Lisbete&EstruturaDeDados+A&K&Lisbete&Algoritmos+A&K&Milton&Redes+A&K&Milton&LabRedes+A&K&Italo&EngenhariaDeSoftware+A&K&Italo&OrientacaoObjetos<1
A&F&Carlos&ESP+A&F&Milton&Redes+A&F&Milton&LabRedes+A&F&Italo&EngenhariaDeSoftware+A&F&Italo&OrientacaoObjetos<1
A&D&Lisbete&EstruturaDeDados+A&D&Lisbete&Algoritmos+A&D&Wladmir&EST+A&D&Carlos&ESP+A&D&Milton&Redes+A&D&Milton&LabRedes<1
A&A&Lisbete&EstruturaDeDados+A&A&Lisbete&Algoritmos+A&A&Wladmir&EST+A&A&Carlos&ESP<1
A&C&Wladmir&EST+A&C&Carlos&ESP+A&C&Milton&Redes+A&C&Milton&LabRedes+A&C&Italo&EngenhariaDeSoftware+A&C&Italo&OrientacaoObjetos<1
A&O&Wladmir&EST+A&O&Carlos&ESP+A&O&Milton&Redes+A&O&Milton&LabRedes+A&O&Satoshi&BancoDeDados+A&O&Italo&EngenhariaDeSoftware+A&O&Italo&OrientacaoObjetos<1
A&H&Lisbete&EstruturaDeDados+A&H&Lisbete&Algoritmos+A&H&Wladmir&EST+A&H&Satoshi&BancoDeDados<1
A&G&Lisbete&EstruturaDeDados+A&G&Lisbete&Algoritmos+A&G&Wladmir&EST+A&G&Carlos&ESP+A&G&Satoshi&BancoDeDados<1
A&I&Carlos&ESP+A&I&Milton&Redes+A&I&Milton&LabRedes+A&I&Satoshi&BancoDeDados<1
A&J&Lisbete&EstruturaDeDados+A&J&Lisbete&Algoritmos+A&J&Carlos&ESP+A&J&Milton&Redes+A&J&Milton&LabRedes<1
A&M&Lisbete&EstruturaDeDados+A&M&Lisbete&Algoritmos+A&M&Carlos&ESP+A&M&Satoshi&BancoDeDados<1
A&L&Carlos&ESP+A&L&Milton&Redes+A&L&Milton&LabRedes+A&L&Italo&EngenhariaDeSoftware+A&L&Italo&OrientacaoObjetos<1
A&N&Lisbete&EstruturaDeDados+A&N&Lisbete&Algoritmos+A&N&Wladmir&EST+A&N&Satoshi&BancoDeDados+A&N&Italo&EngenhariaDeSoftware+A&N&Italo&OrientacaoObjetos<1
A&E&Lisbete&EstruturaDeDados+A&E&Lisbete&Algoritmos+A&E&Milton&Redes+A&E&Milton&LabRedes+A&E&Italo&EngenhariaDeSoftware+A&E&Italo&OrientacaoObjetos<1
B&B&Lisbete&Grafos+B&K&Lisbete&Grafos+B&H&Lisbete&Grafos+B&G&Lisbete&Grafos+B&D&Lisbete&Grafos+B&J&Lisbete&Grafos+B&A&Lisbete&Grafos+B&M&Lisbete&Grafos+B&N&Lisbete&Grafos+B&E&Lisbete&Grafos=2
B&B&Italo&LPII+B&K&Italo&LPII+B&F&Italo&LPII+B&L&Italo&LPII+B&N&Italo&LPII+B&E&Italo&LPII+B&C&Italo&LPII+B&O&Italo&LPII=2
B&G&Carlos&LPI+B&I&Carlos&LPI+B&F&Carlos&LPI+B&D&Carlos&LPI+B&J&Carlos&LPI+B&A&Carlos&LPI+B&M&Carlos&LPI+B&L&Carlos&LPI+B&C&Carlos&LPI+B&O&Carlos&LPI=2
B&H&Wladmir&SistemasDistribuidos+B&G&Wladmir&SistemasDistribuidos+B&D&Wladmir&SistemasDistribuidos+B&A&Wladmir&SistemasDistribuidos+B&N&Wladmir&SistemasDistribuidos+B&C&Wladmir&SistemasDistribuidos+B&O&Wladmir&SistemasDistribuidos=2
B&K&Milton&RedesII+B&I&Milton&RedesII+B&F&Milton&RedesII+B&D&Milton&RedesII+B&J&Milton&RedesII+B&L&Milton&RedesII+B&E&Milton&RedesII+B&C&Milton&RedesII+B&O&Milton&RedesII=1
B&H&Satoshi&LabBancoDeDadosII+B&G&Satoshi&LabBancoDeDadosII+B&I&Satoshi&LabBancoDeDadosII+B&M&Satoshi&LabBancoDeDadosII+B&N&Satoshi&LabBancoDeDadosII+B&O&Satoshi&LabBancoDeDadosII=2
B&K&Milton&LabRedesII+B&I&Milton&LabRedesII+B&F&Milton&LabRedesII+B&D&Milton&LabRedesII+B&J&Milton&LabRedesII+B&L&Milton&LabRedesII+B&E&Milton&LabRedesII+B&C&Milton&LabRedesII+B&O&Milton&LabRedesII=2
B&H&Satoshi&BancoDeDadosII+B&G&Satoshi&BancoDeDadosII+B&I&Satoshi&BancoDeDadosII+B&M&Satoshi&BancoDeDadosII+B&N&Satoshi&BancoDeDadosII+B&O&Satoshi&BancoDeDadosII=2
A&H&Wladmir&EST+A&G&Wladmir&EST+A&D&Wladmir&EST+A&A&Wladmir&EST+A&N&Wladmir&EST+A&C&Wladmir&EST+A&O&Wladmir&EST=2
A&B&Italo&EngenhariaDeSoftware+A&K&Italo&EngenhariaDeSoftware+A&F&Italo&EngenhariaDeSoftware+A&L&Italo&EngenhariaDeSoftware+A&N&Italo&EngenhariaDeSoftware+A&E&Italo&EngenhariaDeSoftware+A&C&Italo&EngenhariaDeSoftware+A&O&Italo&EngenhariaDeSoftware=2
A&H&Satoshi&BancoDeDados+A&G&Satoshi&BancoDeDados+A&I&Satoshi&BancoDeDados+A&M&Satoshi&BancoDeDados+A&N&Satoshi&BancoDeDados+A&O&Satoshi&BancoDeDados=2
A&K&Milton&Redes+A&I&Milton&Redes+A&F&Milton&Redes+A&D&Milton&Redes+A&J&Milton&Redes+A&L&Milton&Redes+A&E&Milton&Redes+A&C&Milton&Redes+A&O&Milton&Redes=1
A&B&Lisbete&EstruturaDeDados+A&K&Lisbete&EstruturaDeDados+A&H&Lisbete&EstruturaDeDados+A&G&Lisbete&EstruturaDeDados+A&D&Lisbete&EstruturaDeDados+A&J&Lisbete&EstruturaDeDados+A&A&Lisbete&EstruturaDeDados+A&M&Lisbete&EstruturaDeDados+A&N&Lisbete&EstruturaDeDados+A&E&Lisbete&EstruturaDeDados=2
A&B&Lisbete&Algoritmos+A&K&Lisbete&Algoritmos+A&H&Lisbete&Algoritmos+A&G&Lisbete&Algoritmos+A&D&Lisbete&Algoritmos+A&J&Lisbete&Algoritmos+A&A&Lisbete&Algoritmos+A&M&Lisbete&Algoritmos+A&N&Lisbete&Algoritmos+A&E&Lisbete&Algoritmos=2
A&G&Carlos&ESP+A&I&Carlos&ESP+A&F&Carlos&ESP+A&D&Carlos&ESP+A&J&Carlos&ESP+A&A&Carlos&ESP+A&M&Carlos&ESP+A&L&Carlos&ESP+A&C&Carlos&ESP+A&O&Carlos&ESP=1
A&K&Milton&LabRedes+A&I&Milton&LabRedes+A&F&Milton&LabRedes+A&D&Milton&LabRedes+A&J&Milton&LabRedes+A&L&Milton&LabRedes+A&E&Milton&LabRedes+A&C&Milton&LabRedes+A&O&Milton&LabRedes=2
A&B&Italo&OrientacaoObjetos+A&K&Italo&OrientacaoObjetos+A&F&Italo&OrientacaoObjetos+A&L&Italo&OrientacaoObjetos+A&N&Italo&OrientacaoObjetos+A&E&Italo&OrientacaoObjetos+A&C&Italo&OrientacaoObjetos+A&O&Italo&OrientacaoObjetos=1
B&B&Lisbete&Grafos+A&B&Lisbete&EstruturaDeDados+A&B&Lisbete&Algoritmos<1
B&K&Lisbete&Grafos+A&K&Lisbete&EstruturaDeDados+A&K&Lisbete&Algoritmos<1
B&D&Lisbete&Grafos+A&D&Lisbete&EstruturaDeDados+A&D&Lisbete&Algoritmos<1
B&A&Lisbete&Grafos+A&A&Lisbete&EstruturaDeDados+A&A&Lisbete&Algoritmos<1
B&H&Lisbete&Grafos+A&H&Lisbete&EstruturaDeDados+A&H&Lisbete&Algoritmos<1
B&G&Lisbete&Grafos+A&G&Lisbete&EstruturaDeDados+A&G&Lisbete&Algoritmos<1
B&J&Lisbete&Grafos+A&J&Lisbete&EstruturaDeDados+A&J&Lisbete&Algoritmos<1
B&M&Lisbete&Grafos+A&M&Lisbete&EstruturaDeDados+A&M&Lisbete&Algoritmos<1
B&N&Lisbete&Grafos+A&N&Lisbete&EstruturaDeDados+A&N&Lisbete&Algoritmos<1
B&E&Lisbete&Grafos+A&E&Lisbete&EstruturaDeDados+A&E&Lisbete&Algoritmos<1
B&D&Wladmir&SistemasDistribuidos+A&D&Wladmir&EST<1
B&A&Wladmir&SistemasDistribuidos+A&A&Wladmir&EST<1
B&C&Wladmir&SistemasDistribuidos+A&C&Wladmir&EST<1
B&O&Wladmir&SistemasDistribuidos+A&O&Wladmir&EST<1
B&H&Wladmir&SistemasDistribuidos+A&H&Wladmir&EST<1
B&G&Wladmir&SistemasDistribuidos+A&G&Wladmir&EST<1
B&N&Wladmir&SistemasDistribuidos+A&N&Wladmir&EST<1
B&F&Carlos&LPI+A&F&Carlos&ESP<1
B&D&Carlos&LPI+A&D&Carlos&ESP<1
B&A&Carlos&LPI+A&A&Carlos&ESP<1
B&C&Carlos&LPI+A&C&Carlos&ESP<1
B&O&Carlos&LPI+A&O&Carlos&ESP<1
B&G&Carlos&LPI+A&G&Carlos&ESP<1
B&I&Carlos&LPI+A&I&Carlos&ESP<1
B&J&Carlos&LPI+A&J&Carlos&ESP<1
B&M&Carlos&LPI+A&M&Carlos&ESP<1
B&L&Carlos&LPI+A&L&Carlos&ESP<1
B&K&Milton&RedesII+B&K&Milton&LabRedesII+A&K&Milton&Redes+A&K&Milton&LabRedes<1
B&F&Milton&RedesII+B&F&Milton&LabRedesII+A&F&Milton&Redes+A&F&Milton&LabRedes<1
B&D&Milton&RedesII+B&D&Milton&LabRedesII+A&D&Milton&Redes+A&D&Milton&LabRedes<1
B&C&Milton&RedesII+B&C&Milton&LabRedesII+A&C&Milton&Redes+A&C&Milton&LabRedes<1
B&O&Milton&RedesII+B&O&Milton&LabRedesII+A&O&Milton&Redes+A&O&Milton&LabRedes<1
B&I&Milton&RedesII+B&I&Milton&LabRedesII+A&I&Milton&Redes+A&I&Milton&LabRedes<1
B&J&Milton&RedesII+B&J&Milton&LabRedesII+A&J&Milton&Redes+A&J&Milton&LabRedes<1
B&L&Milton&RedesII+B&L&Milton&LabRedesII+A&L&Milton&Redes+A&L&Milton&LabRedes<1
B&E&Milton&RedesII+B&E&Milton&LabRedesII+A&E&Milton&Redes+A&E&Milton&LabRedes<1
B&O&Satoshi&LabBancoDeDadosII+B&O&Satoshi&BancoDeDadosII+A&O&Satoshi&BancoDeDados<1
B&H&Satoshi&LabBancoDeDadosII+B&H&Satoshi&BancoDeDadosII+A&H&Satoshi&BancoDeDados<1
B&G&Satoshi&LabBancoDeDadosII+B&G&Satoshi&BancoDeDadosII+A&G&Satoshi&BancoDeDados<1
B&I&Satoshi&LabBancoDeDadosII+B&I&Satoshi&BancoDeDadosII+A&I&Satoshi&BancoDeDados<1
B&M&Satoshi&LabBancoDeDadosII+B&M&Satoshi&BancoDeDadosII+A&M&Satoshi&BancoDeDados<1
B&N&Satoshi&LabBancoDeDadosII+B&N&Satoshi&BancoDeDadosII+A&N&Satoshi&BancoDeDados<1
B&B&Italo&LPII+A&B&Italo&EngenhariaDeSoftware+A&B&Italo&OrientacaoObjetos<1
B&K&Italo&LPII+A&K&Italo&EngenhariaDeSoftware+A&K&Italo&OrientacaoObjetos<1
B&F&Italo&LPII+A&F&Italo&EngenhariaDeSoftware+A&F&Italo&OrientacaoObjetos<1
B&C&Italo&LPII+A&C&Italo&EngenhariaDeSoftware+A&C&Italo&OrientacaoObjetos<1
B&O&Italo&LPII+A&O&Italo&EngenhariaDeSoftware+A&O&Italo&OrientacaoObjetos<1
B&L&Italo&LPII+A&L&Italo&EngenhariaDeSoftware+A&L&Italo&OrientacaoObjetos<1
B&N&Italo&LPII+A&N&Italo&EngenhariaDeSoftware+A&N&Italo&OrientacaoObjetos<1
B&E&Italo&LPII+A&E&Italo&EngenhariaDeSoftware+A&E&Italo&OrientacaoObjetos<1
END
GIN B&B&Lisbete&Grafos
GIN B&K&Lisbete&Grafos
GIN B&H&Lisbete&Grafos
GIN B&G&Lisbete&Grafos
GIN B&D&Lisbete&Grafos
GIN B&J&Lisbete&Grafos
GIN B&A&Lisbete&Grafos
GIN B&M&Lisbete&Grafos
GIN B&N&Lisbete&Grafos
GIN B&E&Lisbete&Grafos
GIN B&H&Wladmir&SistemasDistribuidos
GIN B&G&Wladmir&SistemasDistribuidos
GIN B&D&Wladmir&SistemasDistribuidos
GIN B&A&Wladmir&SistemasDistribuidos
GIN B&N&Wladmir&SistemasDistribuidos
GIN B&C&Wladmir&SistemasDistribuidos
GIN B&O&Wladmir&SistemasDistribuidos
GIN B&G&Carlos&LPI
GIN B&I&Carlos&LPI
GIN B&F&Carlos&LPI
GIN B&D&Carlos&LPI
GIN B&J&Carlos&LPI
GIN B&A&Carlos&LPI
GIN B&M&Carlos&LPI
GIN B&L&Carlos&LPI
GIN B&C&Carlos&LPI
GIN B&O&Carlos&LPI
GIN B&K&Milton&RedesII
GIN B&I&Milton&RedesII
GIN B&F&Milton&RedesII
GIN B&D&Milton&RedesII
GIN B&J&Milton&RedesII
GIN B&L&Milton&RedesII
GIN B&E&Milton&RedesII
GIN B&C&Milton&RedesII
GIN B&O&Milton&RedesII
GIN B&K&Milton&LabRedesII
GIN B&I&Milton&LabRedesII
GIN B&F&Milton&LabRedesII
GIN B&D&Milton&LabRedesII
GIN B&J&Milton&LabRedesII
GIN B&L&Milton&LabRedesII
GIN B&E&Milton&LabRedesII
GIN B&C&Milton&LabRedesII
GIN B&O&Milton&LabRedesII
GIN B&H&Satoshi&LabBancoDeDadosII
GIN B&G&Satoshi&LabBancoDeDadosII
GIN B&I&Satoshi&LabBancoDeDadosII
GIN B&M&Satoshi&LabBancoDeDadosII
GIN B&N&Satoshi&LabBancoDeDadosII
GIN B&O&Satoshi&LabBancoDeDadosII
GIN B&H&Satoshi&BancoDeDadosII
GIN B&G&Satoshi&BancoDeDadosII
GIN B&I&Satoshi&BancoDeDadosII
GIN B&M&Satoshi&BancoDeDadosII
GIN B&N&Satoshi&BancoDeDadosII
GIN B&O&Satoshi&BancoDeDadosII
GIN B&B&Italo&LPII
GIN B&K&Italo&LPII
GIN B&F&Italo&LPII
GIN B&L&Italo&LPII
GIN B&N&Italo&LPII
GIN B&E&Italo&LPII
GIN B&C&Italo&LPII
GIN B&O&Italo&LPII
GIN A&B&Lisbete&EstruturaDeDados
GIN A&K&Lisbete&EstruturaDeDados
GIN A&H&Lisbete&EstruturaDeDados
GIN A&G&Lisbete&EstruturaDeDados
GIN A&D&Lisbete&EstruturaDeDados
GIN A&J&Lisbete&EstruturaDeDados
GIN A&A&Lisbete&EstruturaDeDados
GIN A&M&Lisbete&EstruturaDeDados
GIN A&N&Lisbete&EstruturaDeDados
GIN A&E&Lisbete&EstruturaDeDados
GIN A&B&Lisbete&Algoritmos
GIN A&K&Lisbete&Algoritmos
GIN A&H&Lisbete&Algoritmos
GIN A&G&Lisbete&Algoritmos
GIN A&D&Lisbete&Algoritmos
GIN A&J&Lisbete&Algoritmos
GIN A&A&Lisbete&Algoritmos
GIN A&M&Lisbete&Algoritmos
GIN A&N&Lisbete&Algoritmos
GIN A&E&Lisbete&Algoritmos
GIN A&H&Wladmir&EST
GIN A&G&Wladmir&EST
GIN A&D&Wladmir&EST
GIN A&A&Wladmir&EST
GIN A&N&Wladmir&EST
GIN A&C&Wladmir&EST
GIN A&O&Wladmir&EST
GIN A&G&Carlos&ESP
GIN A&I&Carlos&ESP
GIN A&F&Carlos&ESP
GIN A&D&Carlos&ESP
GIN A&J&Carlos&ESP
GIN A&A&Carlos&ESP
GIN A&M&Carlos&ESP
GIN A&L&Carlos&ESP
GIN A&C&Carlos&ESP
GIN A&O&Carlos&ESP
GIN A&K&Milton&Redes
GIN A&I&Milton&Redes
GIN A&F&Milton&Redes
GIN A&D&Milton&Redes
GIN A&J&Milton&Redes
GIN A&L&Milton&Redes
GIN A&E&Milton&Redes
GIN A&C&Milton&Redes
GIN A&O&Milton&Redes
GIN A&K&Milton&LabRedes
GIN A&I&Milton&LabRedes
GIN A&F&Milton&LabRedes
GIN A&D&Milton&LabRedes
GIN A&J&Milton&LabRedes
GIN A&L&Milton&LabRedes
GIN A&E&Milton&LabRedes
GIN A&C&Milton&LabRedes
GIN A&O&Milton&LabRedes
GIN A&H&Satoshi&BancoDeDados
GIN A&G&Satoshi&BancoDeDados
GIN A&I&Satoshi&BancoDeDados
GIN A&M&Satoshi&BancoDeDados
GIN A&N&Satoshi&BancoDeDados
GIN A&O&Satoshi&BancoDeDados
GIN A&B&Italo&EngenhariaDeSoftware
GIN A&K&Italo&EngenhariaDeSoftware
GIN A&F&Italo&EngenhariaDeSoftware
GIN A&L&Italo&EngenhariaDeSoftware
GIN A&N&Italo&EngenhariaDeSoftware
GIN A&E&Italo&EngenhariaDeSoftware
GIN A&C&Italo&EngenhariaDeSoftware
GIN A&O&Italo&EngenhariaDeSoftware
GIN A&B&Italo&OrientacaoObjetos
GIN A&K&Italo&OrientacaoObjetos
GIN A&F&Italo&OrientacaoObjetos
GIN A&L&Italo&OrientacaoObjetos
GIN A&N&Italo&OrientacaoObjetos
GIN A&E&Italo&OrientacaoObjetos
GIN A&C&Italo&OrientacaoObjetos
GIN A&O&Italo&OrientacaoObjetos
